RAW/montane/fspd/c101_seed-8.out
1220.99069	1.896	33.766
