RAW/montane/fspd/c101_seed-8.sol
Route #1: 98 88 85 84 82 83
Route #2: 41 40 59 68 69
Route #3: 20 24 27 25 22 21
Route #4: 91 89 86 87 90
Route #5: 47 46 48 45 44 42 43
Route #6: 99 100 97 93 92 94 95 96
Route #7: 18 19 15 16 14 12 8 7
Route #8: 57 60 58 56 53 54 55
Route #9: 49 52 50 51 31 35 37 38 39
Route #10: 75 1 2 4 3 5
Route #11: 6 9 11 10
Route #12: 23 26 28 30 17 13
Route #13: 78 76 71 70 73 77
Route #14: 32 33 36 34 29
Route #15: 66 64 61 72 80 79 81
Route #16: 67 65 62 74 63
Cost 1220.990690